Traveling Salesman Problem/TSP_generados/Aleatorio1621103326_10.tsp
NAME: Aleatorio1621103326_10.tsp
COMMENT: Randomly generated scenario
TYPE: TSP
DIMENSION: 10
EDGE_WEIGHT_TYPE: ATT
NODE_COORD_SECTION
1 25.98 29.6
2 13.52 48.59
3 28.5 41.3
4 26.27 35.74
5 8.08 14.4
6 29.03 38.13
7 21.54 4.44
8 8.37 29.63
9 41.53 7.44
10 19.58 6.18
