Traveling Salesman Problem/TSP_generados/Aleatorio1621103326_10.opt.tour
NAME: Aleatorio1621103326_10.opt.tour
COMMENT: Optimal solution for Aleatorio1621103326_10 (128.59327149354166)
TYPE: TOUR
DIMENSION: 10
TOUR_SECTION
1 9 7 10 5 8 2 3 6 4
-1
EOF
